--Link1--
%chk=molecule
#HF/6-31G* SCF=tight Test Pop=MK iop(6/33=2) iop(6/42=6) opt

remark line goes here

-3   1
    O   -2.1900000000        0.5760000000       -0.1190000000     
    C   -0.9830000000        0.1380000000       -0.0600000000     
    C   -0.3950000000       -0.1200000000        1.1770000000     
    C    0.9350000000       -0.5650000000        1.2470000000     
    C    1.6790000000       -0.7830000000        0.0750000000     
    C    3.1790000000       -1.1690000000        0.1020000000     
    O    3.8750000000       -0.5460000000       -0.9990000000     
    C    4.0190000000        0.8180000000       -0.8250000000     
    C    4.0510000000        1.6220000000       -1.9570000000     
    C    4.1410000000        3.0120000000       -1.8180000000     
    C    4.1900000000        3.6070000000       -0.5450000000     
    C    4.2020000000        5.0800000000       -0.3620000000     
    C    4.4660000000        6.0140000000       -1.3100000000     
    C    4.4220000000        7.5400000000       -1.0740000000     
    O    4.1280000000        7.9220000000        0.0810000000     
    O    4.7020000000        8.2100000000       -2.0970000000     
    C    4.1980000000        2.7730000000        0.5870000000     
    C    4.1140000000        1.3880000000        0.4560000000     
    O    4.0180000000        0.6390000000        1.6170000000     
    C    3.9530000000       -0.8000000000        1.4130000000     
    C    5.3360000000       -1.5250000000        1.4510000000     
    O    6.3360000000       -0.9130000000        1.9010000000     
    O    5.3680000000       -2.7440000000        1.1450000000     
    C    1.0500000000       -0.5870000000       -1.1660000000     
    C   -0.2500000000       -0.0900000000       -1.2380000000     
    O   -0.8120000000        0.1960000000       -2.4670000000     
    H   -0.9620000000        0.0370000000        2.0770000000     
    H    1.3680000000       -0.7130000000        2.2260000000     
    H    3.1900000000       -2.2480000000       -0.0570000000     
    H    3.9760000000        1.1660000000       -2.9320000000     
    H    4.1380000000        3.6220000000       -2.7080000000     
    H    3.9520000000        5.4380000000        0.6290000000     
    H    4.7240000000        5.7070000000       -2.3100000000     
    H    4.2420000000        3.1860000000        1.5830000000     
    H    3.4570000000       -1.2370000000        2.2770000000     
    H    1.6000000000       -0.7670000000       -2.0840000000     
    H   -1.6520000000        0.5930000000       -2.1860000000     


